NAME: tsp30-31
TYPE: TSP
DIMENSION: 30
EDGE_WEIGHT_TYPE: EUC_2D
NODE_COORD_SECTION
0 47 67
1 57 28
2 89 77
3 96 63
4 59 27
5 21 6
6 93 63
7 84 19
8 49 9
9 29 43
10 84 7
11 19 58
12 81 80
13 61 0
14 73 94
15 56 54
16 76 23
17 31 93
18 78 85
19 74 29
20 2 54
21 87 0
22 52 90
23 65 43
24 85 42
25 55 67
26 95 91
27 61 22
28 54 57
29 19 84
EOF